param n := 18;
param deposito := 1;

param c:=
1	17	1
17	6	1
6	9	1
9	5	1
5	18	1
18	4	1
4	11	1
11	1	1
2	11	1
14	4	1
10	18	1
13	18	1
8	18	1
12	5	1
15	5	1
16	9	1
3	17	1
7	17	1
;


param: xcoord ycoord :=
1	156	185
2	263	70
3	306	264
4	411	156
5	514	317
6	245	391
7	135	346
8	473	231
9	434	422
10	572	61
11	312	157
12	411	301
13	639	204
14	400	34
15	640	393
16	326	502
17	208	286
18	534	152
;
